(set-logic ALL)
(declare-const k Int)
(declare-fun s () (_ BitVec k))
(declare-fun t () (_ BitVec k))
(assert (not (distinct (bvmul s (bvshl (bvshl t s) (_ bv1 k))) (bvmul s (bvshl (bvshl t s) s)))))
(check-sat)
